QBPP_HJ+_40_025_20_3
40 88 1801
4 23 48 27 3 37 30 40 35 12 40 18 15 37 1 3 17 17 2 16 23 40 48 10 31 22 35 34 14 26 15 20 39 24 8 7 9 6 14 27
    0    0   44   54    0    0    0    0    0   50    0    0    0    0   36    0   23    0    0   81    0    0    0    0    0    0   14   72    0    0    0    0    0    0    0    0    0    0   44    0
    0    0    0    0   78    0    0    0    0    0    0    0    0    0   11    0    0   92    0    0    0    0    0   46    0    0    0    0   15    0    0    0    0    0    0   96    0    0    0    0
   44    0    0    0    0   17    0    0    0   44    0    0    0    0    0    0    0    0    0    0    0    0    0    0    0    0   85   60    0    0    0    0    0    0    0    0  100    0    0    0
   54    0    0    0   45   22    0    0    0    0    0    0    0    0    0    0   26   51    0    0    0   45   65    0    0    0    0    0    0    0   37    0   19   43    0    0   51   17    0    0
    0   78    0   45    0   65    0    0    0   49    8    0    0    0    0    0    0   44    0    0    0    0    0    0   37    0    0    0    0    0    0    0   58    0   42    0    0   19    0    0
    0    0   17   22   65    0    1    0    0    0    0    0    0    0    0   73    0    0    0    0    0    0    0    0    0    0    0    0   99    2    0   87   17    0    0    0    0    0    0    0
    0    0    0    0    0    1    0    1    0    0    0    0    0   45    0    0   64    0   30    0    0    0    0   11    3    0    0    0    0    0   24   79    0    0    0   48    0   66   31    0
    0    0    0    0    0    0    1    0    0    0    0    0    0    0    0   28    0   76    0    0    0    0   96    0    0    0    0    0    0   42    0    0    0   90   99    0    0    0    0    3
    0    0    0    0    0    0    0    0    0    0    0   75    0    0    0   13   55    0    0    0    0    0    0    0    0   65    0   97    0    0    0    0   91    0    0    0   48   49    0    0
   50    0   44    0   49    0    0    0    0    0    0    0   14    2    0    0    0    8    0    0    0    0    0   16    2   49    0    0    0    0    0   43   48    0   81    0    0   23    0    0
    0    0    0    0    8    0    0    0    0    0    0    0    0   29    0    0    0    0    0    0    0    0    0    0    0    0   51    0   24    0    0    0    0    0    0    0    0   91    0    0
    0    0    0    0    0    0    0    0   75    0    0    0   13    0    0   55    3   78    0    0    0    0   53    0    0    0    0    0    0    0    0    0    0    0    0   16    0    0    0    0
    0    0    0    0    0    0    0    0    0   14    0   13    0    0    0   55    0   26   35    0   41    0    0    0    0   28   73    0    0    0    0    0    0    0    0    0    0    0    0    3
    0    0    0    0    0    0   45    0    0    2   29    0    0    0    0    0    0   98    0    0   98    0   19    0    0    0    0   63   37    0    0   51   79   78    0    0    0    0    0    0
   36   11    0    0    0    0    0    0    0    0    0    0    0    0    0    0    0    0    0    0    0    0    0    0   38    0    0    0    0   58    0   34    0    0    0   52    0    0    0    0
    0    0    0    0    0   73    0   28   13    0    0   55   55    0    0    0    0    0   80    0    0    0   65    0    0    0   66    0    0    0    0    0   67    0    0    0    0    0    0   11
   23    0    0   26    0    0   64    0   55    0    0    3    0    0    0    0    0   42    0    0    0    0    0    0   51    9    0   89    0   64   30    0    0    0   29   96    0    0   95    0
    0   92    0   51   44    0    0   76    0    8    0   78   26   98    0    0   42    0    0    0    0   10    0    0    0    0   63    0    0    0    0    0    0    0    0    0    0    4    0    0
    0    0    0    0    0    0   30    0    0    0    0    0   35    0    0   80    0    0    0    0   96   42    0    0    0    0    0    0    0    0    0    0    0    0   57    0    0   63   77    0
   81    0    0    0    0    0    0    0    0    0    0    0    0    0    0    0    0    0    0    0   65    0    0    0    0   77    0    0    0    0    0   48    0   27    0   72    0   30    0    0
    0    0    0    0    0    0    0    0    0    0    0    0   41   98    0    0    0    0   96   65    0    0   32    0   31   90    0   13   61    0   33    0    0    0    0   19    0   91    0    0
    0    0    0   45    0    0    0    0    0    0    0    0    0    0    0    0    0   10   42    0    0    0    0   53   20   80    0    0    0   13   80    0   23    0   45    0    0   71    0   87
    0    0    0   65    0    0    0   96    0    0    0   53    0   19    0   65    0    0    0    0   32    0    0   83    0    0    0    0    0   47    0    0    0    0    0   91    9    0    0    0
    0   46    0    0    0    0   11    0    0   16    0    0    0    0    0    0    0    0    0    0    0   53   83    0    0   74    0    0    0    0    0    0    0    0    0    0    0    0    6    0
    0    0    0    0   37    0    3    0    0    2    0    0    0    0   38    0   51    0    0    0   31   20    0    0    0    0    0    0   70    0    0    0    0    0    0    0    0    0    0    0
    0    0    0    0    0    0    0    0   65   49    0    0   28    0    0    0    9    0    0   77   90   80    0   74    0    0    0    0    0    0    0    0    8    0    0    0    0    0    0    0
   14    0   85    0    0    0    0    0    0    0   51    0   73    0    0   66    0   63    0    0    0    0    0    0    0    0    0   65   25    0    0    0    0  100    0    0   29    0   55   77
   72    0   60    0    0    0    0    0   97    0    0    0    0   63    0    0   89    0    0    0   13    0    0    0    0    0   65    0   37    0   79    0    0    0    0    0    0    0    0    0
    0   15    0    0    0   99    0    0    0    0   24    0    0   37    0    0    0    0    0    0   61    0    0    0   70    0   25   37    0   29   82    0    0    0    0    0    0    0   36   64
    0    0    0    0    0    2    0   42    0    0    0    0    0    0   58    0   64    0    0    0    0   13   47    0    0    0    0    0   29    0    0    0    0    0    0    0    0   45    0    0
    0    0    0   37    0    0   24    0    0    0    0    0    0    0    0    0   30    0    0    0   33   80    0    0    0    0    0   79   82    0    0   15    0    0    0    0    0   81    0    0
    0    0    0    0    0   87   79    0    0   43    0    0    0   51   34    0    0    0    0   48    0    0    0    0    0    0    0    0    0    0   15    0    0    0    0    0    0    0    0    0
    0    0    0   19   58   17    0    0   91   48    0    0    0   79    0   67    0    0    0    0    0   23    0    0    0    8    0    0    0    0    0    0    0    0    0    0    0    0   80    0
    0    0    0   43    0    0    0   90    0    0    0    0    0   78    0    0    0    0    0   27    0    0    0    0    0    0  100    0    0    0    0    0    0    0   42    0    0   19    0    0
    0    0    0    0   42    0    0   99    0   81    0    0    0    0    0    0   29    0   57    0    0   45    0    0    0    0    0    0    0    0    0    0    0   42    0    0    0    0    0   19
    0   96    0    0    0    0   48    0    0    0    0   16    0    0   52    0   96    0    0   72   19    0   91    0    0    0    0    0    0    0    0    0    0    0    0    0    0   15    0    0
    0    0  100   51    0    0    0    0   48    0    0    0    0    0    0    0    0    0    0    0    0    0    9    0    0    0   29    0    0    0    0    0    0    0    0    0    0   84   78    0
    0    0    0   17   19    0   66    0   49   23   91    0    0    0    0    0    0    4   63   30   91   71    0    0    0    0    0    0    0   45   81    0    0   19    0   15   84    0   13    0
   44    0    0    0    0    0   31    0    0    0    0    0    0    0    0    0   95    0   77    0    0    0    0    6    0    0   55    0   36    0    0    0   80    0    0    0   78   13    0    0
    0    0    0    0    0    0    0    3    0    0    0    0    3    0    0   11    0    0    0    0    0   87    0    0    0    0   77    0   64    0    0    0    0    0   19    0    0    0    0    0
